
(set-logic ALL) 

(declare-datatype MyList ((Nil) (Cons (head Real) (tail MyList)) )) 
(declare-fun l0 () MyList) 
(declare-fun l1 () MyList) 
(declare-fun l2 () MyList) 
(declare-fun l3 () MyList) 
(declare-fun i0 () Real) 
(declare-fun i1 () Real) 
(assert (is-Cons Nil) )
(assert (or (is-Nil l0) (is-Nil Nil) (= l1 Nil) (is-Nil l2)) )
(assert (is-Cons Nil) )
(assert (and (is-Cons Nil) (is-Cons Nil) (is-Nil l0)) )
(assert (not (= l3 l3)) )
(assert (not (= l1 Nil)) )
(assert (or (is-Cons Nil) (= l0 Nil)) )
(assert (= l2 l0) )
(check-sat)
